instances/knapsack/discrete_knapsack_uncertainty/knapsack_120_1.lp
\ Model knapsack_120_1
\ LP format - for model browsing. Use MPS format to capture full model detail.
\ Signature: 0x89f048c0c90eaa9
Minimize
  - 2 x[0] - 63 x[1] - 64 x[2] - 8 x[3] - 18 x[4] - 77 x[5] - 74 x[6]
   - 28 x[7] - 83 x[8] - 31 x[9] - 27 x[10] - 3 x[11] - 43 x[12] - 58 x[13]
   - 79 x[14] - 52 x[15] - 34 x[16] - 26 x[17] - 11 x[18] - 54 x[19]
   - 30 x[20] - 67 x[21] - 48 x[22] - 80 x[23] - 93 x[24] - 79 x[25]
   - 56 x[26] - 40 x[27] - 54 x[28] - 17 x[29] - 69 x[30] - 52 x[31]
   - 68 x[32] - 99 x[33] - 28 x[34] - 45 x[35] - 21 x[36] - 55 x[37]
   - 15 x[38] - 4 x[39] - 64 x[40] - 70 x[41] - 14 x[42] - 83 x[43]
   - 35 x[44] - 11 x[45] - 65 x[46] - 73 x[47] - 89 x[48] - 74 x[49]
   - 35 x[50] - 71 x[51] - 99 x[52] - 89 x[53] - 4 x[54] - 46 x[55]
   - 63 x[56] - 40 x[57] - 68 x[58] - 11 x[59] - 40 x[60] - 26 x[61]
   - 50 x[62] - 22 x[63] - 63 x[64] - 81 x[65] - 17 x[66] - 22 x[67]
   - 41 x[68] - 58 x[69] - x[70] - 67 x[71] - 57 x[72] - 30 x[73]
   - 83 x[74] - 70 x[75] - 42 x[76] - 85 x[77] - 8 x[78] - 68 x[79]
   - 51 x[80] - 58 x[81] - 86 x[82] - 38 x[83] - 65 x[84] - 21 x[85]
   - 86 x[86] - 71 x[87] - 100 x[88] - 51 x[89] - 70 x[90] - 6 x[91]
   - 26 x[92] - 37 x[93] - 64 x[94] - 75 x[95] - 45 x[96] - 40 x[97]
   - 97 x[98] - 97 x[99] - 21 x[100] - 14 x[101] - 47 x[102] - 2 x[103]
   - 63 x[104] - 99 x[105] - 62 x[106] - 93 x[107] - 50 x[108] - 13 x[109]
   - 50 x[110] - 10 x[111] - 98 x[112] - 88 x[113] - 98 x[114] - 17 x[115]
   - 7 x[116] - 93 x[117] - 98 x[118] - 27 x[119]
Subject To
 primal_upper: 20 x[0] + 84 x[1] + 62 x[2] + 19 x[3] + 96 x[4] + 2 x[5]
   + 65 x[6] + 100 x[7] + 77 x[8] + 74 x[9] + 60 x[10] + 59 x[11]
   + 96 x[12] + 92 x[13] + 17 x[14] + 41 x[15] + 5 x[16] + 16 x[17]
   + 17 x[18] + 46 x[19] + 17 x[20] + 60 x[21] + 56 x[22] + 51 x[23]
   + 49 x[24] + 80 x[25] + 6 x[26] + 56 x[27] + 90 x[28] + 19 x[29]
   + 62 x[30] + 68 x[31] + 68 x[32] + 5 x[33] + 68 x[34] + 93 x[35]
   + 76 x[36] + 85 x[37] + 76 x[38] + 59 x[39] + 27 x[40] + 18 x[41]
   + 66 x[42] + 30 x[43] + 75 x[44] + 43 x[45] + 62 x[46] + 46 x[47]
   + 83 x[48] + 96 x[49] + 55 x[50] + 20 x[51] + 77 x[52] + 28 x[53]
   + 97 x[54] + 92 x[55] + 65 x[56] + 71 x[57] + 64 x[58] + 42 x[59]
   + 97 x[60] + 3 x[61] + 72 x[62] + 91 x[63] + 64 x[64] + 84 x[65]
   + 37 x[66] + 27 x[67] + 12 x[68] + 66 x[69] + 30 x[70] + 34 x[71]
   + 54 x[72] + 27 x[73] + 32 x[74] + x[75] + 55 x[76] + 35 x[77]
   + 37 x[78] + 31 x[79] + 42 x[80] + 74 x[81] + 79 x[82] + 90 x[83]
   + 2 x[84] + 66 x[85] + 24 x[86] + 88 x[87] + 38 x[88] + 83 x[89]
   + 37 x[90] + 33 x[91] + 93 x[92] + 12 x[93] + 32 x[94] + 5 x[95]
   + 53 x[96] + 69 x[97] + 28 x[98] + 44 x[99] + 33 x[100] + 68 x[101]
   + 58 x[102] + 20 x[103] + 37 x[104] + 14 x[105] + 79 x[106] + 27 x[107]
   + 39 x[108] + 9 x[109] + 15 x[110] + 71 x[111] + 29 x[112] + 77 x[113]
   + 5 x[114] + 75 x[115] + 67 x[116] + 81 x[117] + 77 x[118] + 13 x[119]
   + 2 r[0] + 8.4 r[1] + 6.2 r[2] + 1.9 r[3] + 9.6 r[4] + 0.2 r[5]
   + 6.5 r[6] + 10 r[7] + 7.7 r[8] + 7.4 r[9] + 6 r[10] + 5.9 r[11]
   + 9.6 r[12] + 9.2 r[13] + 1.7 r[14] + 4.1 r[15] + 0.5 r[16] + 1.6 r[17]
   + 1.7 r[18] + 4.6 r[19] + 1.7 r[20] + 6 r[21] + 5.6 r[22] + 5.1 r[23]
   + 4.9 r[24] + 8 r[25] + 0.6 r[26] + 5.6 r[27] + 9 r[28] + 1.9 r[29]
   + 6.2 r[30] + 6.8 r[31] + 6.8 r[32] + 0.5 r[33] + 6.8 r[34] + 9.3 r[35]
   + 7.6 r[36] + 8.5 r[37] + 7.6 r[38] + 5.9 r[39] + 2.7 r[40] + 1.8 r[41]
   + 6.6 r[42] + 3 r[43] + 7.5 r[44] + 4.3 r[45] + 6.2 r[46] + 4.6 r[47]
   + 8.3 r[48] + 9.6 r[49] + 5.5 r[50] + 2 r[51] + 7.7 r[52] + 2.8 r[53]
   + 9.7 r[54] + 9.2 r[55] + 6.5 r[56] + 7.1 r[57] + 6.4 r[58] + 4.2 r[59]
   + 9.7 r[60] + 0.3 r[61] + 7.2 r[62] + 9.1 r[63] + 6.4 r[64] + 8.4 r[65]
   + 3.7 r[66] + 2.7 r[67] + 1.2 r[68] + 6.6 r[69] + 3 r[70] + 3.4 r[71]
   + 5.4 r[72] + 2.7 r[73] + 3.2 r[74] + 0.1 r[75] + 5.5 r[76] + 3.5 r[77]
   + 3.7 r[78] + 3.1 r[79] + 4.2 r[80] + 7.4 r[81] + 7.9 r[82] + 9 r[83]
   + 0.2 r[84] + 6.6 r[85] + 2.4 r[86] + 8.8 r[87] + 3.8 r[88] + 8.3 r[89]
   + 3.7 r[90] + 3.3 r[91] + 9.3 r[92] + 1.2 r[93] + 3.2 r[94] + 0.5 r[95]
   + 5.3 r[96] + 6.9 r[97] + 2.8 r[98] + 4.4 r[99] + 3.3 r[100]
   + 6.8 r[101] + 5.8 r[102] + 2 r[103] + 3.7 r[104] + 1.4 r[105]
   + 7.9 r[106] + 2.7 r[107] + 3.9 r[108] + 0.9 r[109] + 1.5 r[110]
   + 7.1 r[111] + 2.9 r[112] + 7.7 r[113] + 0.5 r[114] + 7.5 r[115]
   + 6.7 r[116] + 8.1 r[117] + 7.7 r[118] + 1.3 r[119] <= 583
 primal_lower: 2.601782575728829 x[0] + 0.4019749374056567 x[1]
   + 1.803355028977815 x[2] + 1.630579708850303 x[3]
   + 3.978212842698039 x[4] + 2.913849297256113 x[5]
   + 1.636044279283827 x[6] + 2.434782266007326 x[7]
   + 1.343498682374219 x[8] + 4.798337860000973 x[9]
   + 4.133618216083408 x[10] + 0.6366908032121051 x[11]
   + 2.768229725965968 x[12] + 1.637645851179438 x[13]
   + 2.376732630655445 x[14] + 2.901451743923653 x[15]
   + 2.19940031058099 x[16] + 3.294189128841223 x[17]
   + 1.901566341340426 x[18] + 3.896373871603884 x[19]
   + 3.200363450960277 x[20] + 3.049428942690418 x[21]
   + 1.404845059263732 x[22] + 2.308144542913411 x[23]
   + 2.471867980484513 x[24] + 2.485364031080749 x[25]
   + 1.433509193479186 x[26] + 1.912402612340779 x[27]
   + 0.067452617523476 x[28] + 2.905958847840111 x[29]
   + 1.390550092437493 x[30] + 1.350441123051555 x[31]
   + 1.337447663094157 x[32] + 2.073067752786706 x[33]
   + 2.255797856506507 x[34] + 0.7386154733384979 x[35]
   + 1.236512102072214 x[36] + 1.94817867456784 x[37]
   + 4.785929428913756 x[38] + 4.387340857649155 x[39]
   + 3.426647341846073 x[40] + 0.8618014206818755 x[41]
   + 2.434045448850858 x[42] + 0.5476787814968643 x[43]
   + 4.291143262020499 x[44] + 0.7368261838015824 x[45]
   + 2.559747595106626 x[46] + 2.697180888980867 x[47]
   + 0.6295507877907258 x[48] + 0.9526971376897058 x[49]
   + 0.2792014559535921 x[50] + 1.496824709541397 x[51]
   + 3.264722888627475 x[52] + 0.0508321769941651 x[53]
   + 1.228575950484168 x[54] + 1.063370920672982 x[55]
   + 1.07597793293899 x[56] + 4.536207588456005 x[57]
   + 1.434306190403791 x[58] + 1.820315562760816 x[59]
   + 3.06004682110918 x[60] + 1.562196115448059 x[61]
   + 3.58870627061293 x[62] + 0.0869591807144831 x[63]
   + 3.96393675753462 x[64] + 3.299359005340399 x[65]
   + 0.0818774842121791 x[66] + 0.3123455038371736 x[67]
   + 2.751642243239613 x[68] + 4.635453888788168 x[69]
   + 3.088766271284411 x[70] + 3.370227536906133 x[71]
   + 4.77485835643677 x[72] + 0.2547860289129357 x[73]
   + 0.5438356975357438 x[74] + 4.518601088072687 x[75]
   + 4.281371167012761 x[76] + 1.089208665704067 x[77]
   + 3.271436876286046 x[78] + 2.344089469692917 x[79]
   + 4.502281740591783 x[80] + 4.607929111668986 x[81]
   + 3.922377304553846 x[82] + 2.353005045916784 x[83]
   + 1.428968488070406 x[84] + 4.054600976252418 x[85]
   + 0.8983899127727601 x[86] + 1.503001648165901 x[87]
   + 1.500823018195498 x[88] + 0.4757852954684226 x[89]
   + 2.069135107075814 x[90] + 0.0576792201951451 x[91]
   + 2.617860174361994 x[92] + 0.9227714121521107 x[93]
   + 3.106844358034549 x[94] + 4.318496537392385 x[95]
   + 0.396151907916655 x[96] + 4.029188706009966 x[97]
   + 0.9439927117500129 x[98] + 4.243507620153281 x[99]
   + 4.189477616265676 x[100] + 0.407771142684326 x[101]
   + 2.64322306810528 x[102] + 0.9649298608675912 x[103]
   + 1.930408773220119 x[104] + 4.390780577212207 x[105]
   + 3.226658595740576 x[106] + 3.639543593524543 x[107]
   + 1.83746662053007 x[108] + 4.422606117308204 x[109]
   + 4.180108582138292 x[110] + 4.598479569840992 x[111]
   + 4.527293381269232 x[112] + 3.302702418070443 x[113]
   + 4.444018740291217 x[114] + 4.314413687742277 x[115]
   + 1.452933849291474 x[116] + 1.955594823917493 x[117]
   + 2.580152875456716 x[118] + 3.64561263748023 x[119] + 61 u[0] + 41 u[1]
   + 71 u[2] + 96 u[3] + 21 u[4] + 51 u[5] + 2 u[6] + 89 u[7] + 94 u[8]
   + 83 u[9] + 5 u[10] + 64 u[11] + 65 u[12] + 45 u[13] + 30 u[14]
   + 94 u[15] + 74 u[16] + 9 u[17] + 46 u[18] + 75 u[19] + 82 u[20]
   + 37 u[21] + 25 u[22] + 80 u[23] + 66 u[24] + 21 u[25] + 83 u[26]
   + 93 u[27] + 71 u[28] + 48 u[29] + 43 u[30] + 9 u[31] + 73 u[32]
   + 22 u[33] + 85 u[34] + 66 u[35] + 45 u[36] + 26 u[37] + 45 u[38]
   + 84 u[39] + 48 u[40] + 15 u[41] + 63 u[42] + 43 u[43] + 16 u[44]
   + 28 u[45] + 63 u[46] + 91 u[47] + 36 u[48] + 53 u[49] + 48 u[50]
   + 73 u[51] + 82 u[52] + 57 u[53] + 78 u[54] + 65 u[55] + 98 u[56]
   + 68 u[57] + 21 u[58] + 31 u[59] + 38 u[60] + 44 u[61] + 69 u[62]
   + 60 u[63] + 81 u[64] + 37 u[65] + 30 u[66] + 88 u[67] + 25 u[68]
   + 55 u[69] + 15 u[70] + 23 u[71] + 79 u[72] + 48 u[73] + 25 u[74]
   + 62 u[75] + 36 u[76] + 52 u[77] + 6 u[78] + 52 u[79] + 47 u[80]
   + 55 u[81] + 60 u[82] + 59 u[83] + 3 u[84] + 3 u[85] + u[86] + 65 u[87]
   + 79 u[88] + 28 u[89] + 14 u[90] + 82 u[91] + 34 u[92] + 41 u[93]
   + 57 u[94] + 6 u[95] + 94 u[96] + 50 u[97] + 17 u[98] + 81 u[99]
   + 2 u[100] + 53 u[101] + 15 u[102] + 65 u[103] + 90 u[104] + 71 u[105]
   + 28 u[106] + 84 u[107] + 100 u[108] + 50 u[109] + 68 u[110] + 44 u[111]
   + 46 u[112] + 94 u[113] + 42 u[114] + 28 u[115] + 28 u[116] + 22 u[117]
   + 6 u[118] + 54 u[119] <= 78308
 mccormick1[0]: - u[0] + r[0] <= 0
 mccormick1[1]: - u[1] + r[1] <= 0
 mccormick1[2]: - u[2] + r[2] <= 0
 mccormick1[3]: - u[3] + r[3] <= 0
 mccormick1[4]: - u[4] + r[4] <= 0
 mccormick1[5]: - u[5] + r[5] <= 0
 mccormick1[6]: - u[6] + r[6] <= 0
 mccormick1[7]: - u[7] + r[7] <= 0
 mccormick1[8]: - u[8] + r[8] <= 0
 mccormick1[9]: - u[9] + r[9] <= 0
 mccormick1[10]: - u[10] + r[10] <= 0
 mccormick1[11]: - u[11] + r[11] <= 0
 mccormick1[12]: - u[12] + r[12] <= 0
 mccormick1[13]: - u[13] + r[13] <= 0
 mccormick1[14]: - u[14] + r[14] <= 0
 mccormick1[15]: - u[15] + r[15] <= 0
 mccormick1[16]: - u[16] + r[16] <= 0
 mccormick1[17]: - u[17] + r[17] <= 0
 mccormick1[18]: - u[18] + r[18] <= 0
 mccormick1[19]: - u[19] + r[19] <= 0
 mccormick1[20]: - u[20] + r[20] <= 0
 mccormick1[21]: - u[21] + r[21] <= 0
 mccormick1[22]: - u[22] + r[22] <= 0
 mccormick1[23]: - u[23] + r[23] <= 0
 mccormick1[24]: - u[24] + r[24] <= 0
 mccormick1[25]: - u[25] + r[25] <= 0
 mccormick1[26]: - u[26] + r[26] <= 0
 mccormick1[27]: - u[27] + r[27] <= 0
 mccormick1[28]: - u[28] + r[28] <= 0
 mccormick1[29]: - u[29] + r[29] <= 0
 mccormick1[30]: - u[30] + r[30] <= 0
 mccormick1[31]: - u[31] + r[31] <= 0
 mccormick1[32]: - u[32] + r[32] <= 0
 mccormick1[33]: - u[33] + r[33] <= 0
 mccormick1[34]: - u[34] + r[34] <= 0
 mccormick1[35]: - u[35] + r[35] <= 0
 mccormick1[36]: - u[36] + r[36] <= 0
 mccormick1[37]: - u[37] + r[37] <= 0
 mccormick1[38]: - u[38] + r[38] <= 0
 mccormick1[39]: - u[39] + r[39] <= 0
 mccormick1[40]: - u[40] + r[40] <= 0
 mccormick1[41]: - u[41] + r[41] <= 0
 mccormick1[42]: - u[42] + r[42] <= 0
 mccormick1[43]: - u[43] + r[43] <= 0
 mccormick1[44]: - u[44] + r[44] <= 0
 mccormick1[45]: - u[45] + r[45] <= 0
 mccormick1[46]: - u[46] + r[46] <= 0
 mccormick1[47]: - u[47] + r[47] <= 0
 mccormick1[48]: - u[48] + r[48] <= 0
 mccormick1[49]: - u[49] + r[49] <= 0
 mccormick1[50]: - u[50] + r[50] <= 0
 mccormick1[51]: - u[51] + r[51] <= 0
 mccormick1[52]: - u[52] + r[52] <= 0
 mccormick1[53]: - u[53] + r[53] <= 0
 mccormick1[54]: - u[54] + r[54] <= 0
 mccormick1[55]: - u[55] + r[55] <= 0
 mccormick1[56]: - u[56] + r[56] <= 0
 mccormick1[57]: - u[57] + r[57] <= 0
 mccormick1[58]: - u[58] + r[58] <= 0
 mccormick1[59]: - u[59] + r[59] <= 0
 mccormick1[60]: - u[60] + r[60] <= 0
 mccormick1[61]: - u[61] + r[61] <= 0
 mccormick1[62]: - u[62] + r[62] <= 0
 mccormick1[63]: - u[63] + r[63] <= 0
 mccormick1[64]: - u[64] + r[64] <= 0
 mccormick1[65]: - u[65] + r[65] <= 0
 mccormick1[66]: - u[66] + r[66] <= 0
 mccormick1[67]: - u[67] + r[67] <= 0
 mccormick1[68]: - u[68] + r[68] <= 0
 mccormick1[69]: - u[69] + r[69] <= 0
 mccormick1[70]: - u[70] + r[70] <= 0
 mccormick1[71]: - u[71] + r[71] <= 0
 mccormick1[72]: - u[72] + r[72] <= 0
 mccormick1[73]: - u[73] + r[73] <= 0
 mccormick1[74]: - u[74] + r[74] <= 0
 mccormick1[75]: - u[75] + r[75] <= 0
 mccormick1[76]: - u[76] + r[76] <= 0
 mccormick1[77]: - u[77] + r[77] <= 0
 mccormick1[78]: - u[78] + r[78] <= 0
 mccormick1[79]: - u[79] + r[79] <= 0
 mccormick1[80]: - u[80] + r[80] <= 0
 mccormick1[81]: - u[81] + r[81] <= 0
 mccormick1[82]: - u[82] + r[82] <= 0
 mccormick1[83]: - u[83] + r[83] <= 0
 mccormick1[84]: - u[84] + r[84] <= 0
 mccormick1[85]: - u[85] + r[85] <= 0
 mccormick1[86]: - u[86] + r[86] <= 0
 mccormick1[87]: - u[87] + r[87] <= 0
 mccormick1[88]: - u[88] + r[88] <= 0
 mccormick1[89]: - u[89] + r[89] <= 0
 mccormick1[90]: - u[90] + r[90] <= 0
 mccormick1[91]: - u[91] + r[91] <= 0
 mccormick1[92]: - u[92] + r[92] <= 0
 mccormick1[93]: - u[93] + r[93] <= 0
 mccormick1[94]: - u[94] + r[94] <= 0
 mccormick1[95]: - u[95] + r[95] <= 0
 mccormick1[96]: - u[96] + r[96] <= 0
 mccormick1[97]: - u[97] + r[97] <= 0
 mccormick1[98]: - u[98] + r[98] <= 0
 mccormick1[99]: - u[99] + r[99] <= 0
 mccormick1[100]: - u[100] + r[100] <= 0
 mccormick1[101]: - u[101] + r[101] <= 0
 mccormick1[102]: - u[102] + r[102] <= 0
 mccormick1[103]: - u[103] + r[103] <= 0
 mccormick1[104]: - u[104] + r[104] <= 0
 mccormick1[105]: - u[105] + r[105] <= 0
 mccormick1[106]: - u[106] + r[106] <= 0
 mccormick1[107]: - u[107] + r[107] <= 0
 mccormick1[108]: - u[108] + r[108] <= 0
 mccormick1[109]: - u[109] + r[109] <= 0
 mccormick1[110]: - u[110] + r[110] <= 0
 mccormick1[111]: - u[111] + r[111] <= 0
 mccormick1[112]: - u[112] + r[112] <= 0
 mccormick1[113]: - u[113] + r[113] <= 0
 mccormick1[114]: - u[114] + r[114] <= 0
 mccormick1[115]: - u[115] + r[115] <= 0
 mccormick1[116]: - u[116] + r[116] <= 0
 mccormick1[117]: - u[117] + r[117] <= 0
 mccormick1[118]: - u[118] + r[118] <= 0
 mccormick1[119]: - u[119] + r[119] <= 0
 mccormick2[0]: - x[0] + r[0] <= 0
 mccormick2[1]: - x[1] + r[1] <= 0
 mccormick2[2]: - x[2] + r[2] <= 0
 mccormick2[3]: - x[3] + r[3] <= 0
 mccormick2[4]: - x[4] + r[4] <= 0
 mccormick2[5]: - x[5] + r[5] <= 0
 mccormick2[6]: - x[6] + r[6] <= 0
 mccormick2[7]: - x[7] + r[7] <= 0
 mccormick2[8]: - x[8] + r[8] <= 0
 mccormick2[9]: - x[9] + r[9] <= 0
 mccormick2[10]: - x[10] + r[10] <= 0
 mccormick2[11]: - x[11] + r[11] <= 0
 mccormick2[12]: - x[12] + r[12] <= 0
 mccormick2[13]: - x[13] + r[13] <= 0
 mccormick2[14]: - x[14] + r[14] <= 0
 mccormick2[15]: - x[15] + r[15] <= 0
 mccormick2[16]: - x[16] + r[16] <= 0
 mccormick2[17]: - x[17] + r[17] <= 0
 mccormick2[18]: - x[18] + r[18] <= 0
 mccormick2[19]: - x[19] + r[19] <= 0
 mccormick2[20]: - x[20] + r[20] <= 0
 mccormick2[21]: - x[21] + r[21] <= 0
 mccormick2[22]: - x[22] + r[22] <= 0
 mccormick2[23]: - x[23] + r[23] <= 0
 mccormick2[24]: - x[24] + r[24] <= 0
 mccormick2[25]: - x[25] + r[25] <= 0
 mccormick2[26]: - x[26] + r[26] <= 0
 mccormick2[27]: - x[27] + r[27] <= 0
 mccormick2[28]: - x[28] + r[28] <= 0
 mccormick2[29]: - x[29] + r[29] <= 0
 mccormick2[30]: - x[30] + r[30] <= 0
 mccormick2[31]: - x[31] + r[31] <= 0
 mccormick2[32]: - x[32] + r[32] <= 0
 mccormick2[33]: - x[33] + r[33] <= 0
 mccormick2[34]: - x[34] + r[34] <= 0
 mccormick2[35]: - x[35] + r[35] <= 0
 mccormick2[36]: - x[36] + r[36] <= 0
 mccormick2[37]: - x[37] + r[37] <= 0
 mccormick2[38]: - x[38] + r[38] <= 0
 mccormick2[39]: - x[39] + r[39] <= 0
 mccormick2[40]: - x[40] + r[40] <= 0
 mccormick2[41]: - x[41] + r[41] <= 0
 mccormick2[42]: - x[42] + r[42] <= 0
 mccormick2[43]: - x[43] + r[43] <= 0
 mccormick2[44]: - x[44] + r[44] <= 0
 mccormick2[45]: - x[45] + r[45] <= 0
 mccormick2[46]: - x[46] + r[46] <= 0
 mccormick2[47]: - x[47] + r[47] <= 0
 mccormick2[48]: - x[48] + r[48] <= 0
 mccormick2[49]: - x[49] + r[49] <= 0
 mccormick2[50]: - x[50] + r[50] <= 0
 mccormick2[51]: - x[51] + r[51] <= 0
 mccormick2[52]: - x[52] + r[52] <= 0
 mccormick2[53]: - x[53] + r[53] <= 0
 mccormick2[54]: - x[54] + r[54] <= 0
 mccormick2[55]: - x[55] + r[55] <= 0
 mccormick2[56]: - x[56] + r[56] <= 0
 mccormick2[57]: - x[57] + r[57] <= 0
 mccormick2[58]: - x[58] + r[58] <= 0
 mccormick2[59]: - x[59] + r[59] <= 0
 mccormick2[60]: - x[60] + r[60] <= 0
 mccormick2[61]: - x[61] + r[61] <= 0
 mccormick2[62]: - x[62] + r[62] <= 0
 mccormick2[63]: - x[63] + r[63] <= 0
 mccormick2[64]: - x[64] + r[64] <= 0
 mccormick2[65]: - x[65] + r[65] <= 0
 mccormick2[66]: - x[66] + r[66] <= 0
 mccormick2[67]: - x[67] + r[67] <= 0
 mccormick2[68]: - x[68] + r[68] <= 0
 mccormick2[69]: - x[69] + r[69] <= 0
 mccormick2[70]: - x[70] + r[70] <= 0
 mccormick2[71]: - x[71] + r[71] <= 0
 mccormick2[72]: - x[72] + r[72] <= 0
 mccormick2[73]: - x[73] + r[73] <= 0
 mccormick2[74]: - x[74] + r[74] <= 0
 mccormick2[75]: - x[75] + r[75] <= 0
 mccormick2[76]: - x[76] + r[76] <= 0
 mccormick2[77]: - x[77] + r[77] <= 0
 mccormick2[78]: - x[78] + r[78] <= 0
 mccormick2[79]: - x[79] + r[79] <= 0
 mccormick2[80]: - x[80] + r[80] <= 0
 mccormick2[81]: - x[81] + r[81] <= 0
 mccormick2[82]: - x[82] + r[82] <= 0
 mccormick2[83]: - x[83] + r[83] <= 0
 mccormick2[84]: - x[84] + r[84] <= 0
 mccormick2[85]: - x[85] + r[85] <= 0
 mccormick2[86]: - x[86] + r[86] <= 0
 mccormick2[87]: - x[87] + r[87] <= 0
 mccormick2[88]: - x[88] + r[88] <= 0
 mccormick2[89]: - x[89] + r[89] <= 0
 mccormick2[90]: - x[90] + r[90] <= 0
 mccormick2[91]: - x[91] + r[91] <= 0
 mccormick2[92]: - x[92] + r[92] <= 0
 mccormick2[93]: - x[93] + r[93] <= 0
 mccormick2[94]: - x[94] + r[94] <= 0
 mccormick2[95]: - x[95] + r[95] <= 0
 mccormick2[96]: - x[96] + r[96] <= 0
 mccormick2[97]: - x[97] + r[97] <= 0
 mccormick2[98]: - x[98] + r[98] <= 0
 mccormick2[99]: - x[99] + r[99] <= 0
 mccormick2[100]: - x[100] + r[100] <= 0
 mccormick2[101]: - x[101] + r[101] <= 0
 mccormick2[102]: - x[102] + r[102] <= 0
 mccormick2[103]: - x[103] + r[103] <= 0
 mccormick2[104]: - x[104] + r[104] <= 0
 mccormick2[105]: - x[105] + r[105] <= 0
 mccormick2[106]: - x[106] + r[106] <= 0
 mccormick2[107]: - x[107] + r[107] <= 0
 mccormick2[108]: - x[108] + r[108] <= 0
 mccormick2[109]: - x[109] + r[109] <= 0
 mccormick2[110]: - x[110] + r[110] <= 0
 mccormick2[111]: - x[111] + r[111] <= 0
 mccormick2[112]: - x[112] + r[112] <= 0
 mccormick2[113]: - x[113] + r[113] <= 0
 mccormick2[114]: - x[114] + r[114] <= 0
 mccormick2[115]: - x[115] + r[115] <= 0
 mccormick2[116]: - x[116] + r[116] <= 0
 mccormick2[117]: - x[117] + r[117] <= 0
 mccormick2[118]: - x[118] + r[118] <= 0
 mccormick2[119]: - x[119] + r[119] <= 0
 mccormick3[0]: x[0] + u[0] - r[0] <= 1
 mccormick3[1]: x[1] + u[1] - r[1] <= 1
 mccormick3[2]: x[2] + u[2] - r[2] <= 1
 mccormick3[3]: x[3] + u[3] - r[3] <= 1
 mccormick3[4]: x[4] + u[4] - r[4] <= 1
 mccormick3[5]: x[5] + u[5] - r[5] <= 1
 mccormick3[6]: x[6] + u[6] - r[6] <= 1
 mccormick3[7]: x[7] + u[7] - r[7] <= 1
 mccormick3[8]: x[8] + u[8] - r[8] <= 1
 mccormick3[9]: x[9] + u[9] - r[9] <= 1
 mccormick3[10]: x[10] + u[10] - r[10] <= 1
 mccormick3[11]: x[11] + u[11] - r[11] <= 1
 mccormick3[12]: x[12] + u[12] - r[12] <= 1
 mccormick3[13]: x[13] + u[13] - r[13] <= 1
 mccormick3[14]: x[14] + u[14] - r[14] <= 1
 mccormick3[15]: x[15] + u[15] - r[15] <= 1
 mccormick3[16]: x[16] + u[16] - r[16] <= 1
 mccormick3[17]: x[17] + u[17] - r[17] <= 1
 mccormick3[18]: x[18] + u[18] - r[18] <= 1
 mccormick3[19]: x[19] + u[19] - r[19] <= 1
 mccormick3[20]: x[20] + u[20] - r[20] <= 1
 mccormick3[21]: x[21] + u[21] - r[21] <= 1
 mccormick3[22]: x[22] + u[22] - r[22] <= 1
 mccormick3[23]: x[23] + u[23] - r[23] <= 1
 mccormick3[24]: x[24] + u[24] - r[24] <= 1
 mccormick3[25]: x[25] + u[25] - r[25] <= 1
 mccormick3[26]: x[26] + u[26] - r[26] <= 1
 mccormick3[27]: x[27] + u[27] - r[27] <= 1
 mccormick3[28]: x[28] + u[28] - r[28] <= 1
 mccormick3[29]: x[29] + u[29] - r[29] <= 1
 mccormick3[30]: x[30] + u[30] - r[30] <= 1
 mccormick3[31]: x[31] + u[31] - r[31] <= 1
 mccormick3[32]: x[32] + u[32] - r[32] <= 1
 mccormick3[33]: x[33] + u[33] - r[33] <= 1
 mccormick3[34]: x[34] + u[34] - r[34] <= 1
 mccormick3[35]: x[35] + u[35] - r[35] <= 1
 mccormick3[36]: x[36] + u[36] - r[36] <= 1
 mccormick3[37]: x[37] + u[37] - r[37] <= 1
 mccormick3[38]: x[38] + u[38] - r[38] <= 1
 mccormick3[39]: x[39] + u[39] - r[39] <= 1
 mccormick3[40]: x[40] + u[40] - r[40] <= 1
 mccormick3[41]: x[41] + u[41] - r[41] <= 1
 mccormick3[42]: x[42] + u[42] - r[42] <= 1
 mccormick3[43]: x[43] + u[43] - r[43] <= 1
 mccormick3[44]: x[44] + u[44] - r[44] <= 1
 mccormick3[45]: x[45] + u[45] - r[45] <= 1
 mccormick3[46]: x[46] + u[46] - r[46] <= 1
 mccormick3[47]: x[47] + u[47] - r[47] <= 1
 mccormick3[48]: x[48] + u[48] - r[48] <= 1
 mccormick3[49]: x[49] + u[49] - r[49] <= 1
 mccormick3[50]: x[50] + u[50] - r[50] <= 1
 mccormick3[51]: x[51] + u[51] - r[51] <= 1
 mccormick3[52]: x[52] + u[52] - r[52] <= 1
 mccormick3[53]: x[53] + u[53] - r[53] <= 1
 mccormick3[54]: x[54] + u[54] - r[54] <= 1
 mccormick3[55]: x[55] + u[55] - r[55] <= 1
 mccormick3[56]: x[56] + u[56] - r[56] <= 1
 mccormick3[57]: x[57] + u[57] - r[57] <= 1
 mccormick3[58]: x[58] + u[58] - r[58] <= 1
 mccormick3[59]: x[59] + u[59] - r[59] <= 1
 mccormick3[60]: x[60] + u[60] - r[60] <= 1
 mccormick3[61]: x[61] + u[61] - r[61] <= 1
 mccormick3[62]: x[62] + u[62] - r[62] <= 1
 mccormick3[63]: x[63] + u[63] - r[63] <= 1
 mccormick3[64]: x[64] + u[64] - r[64] <= 1
 mccormick3[65]: x[65] + u[65] - r[65] <= 1
 mccormick3[66]: x[66] + u[66] - r[66] <= 1
 mccormick3[67]: x[67] + u[67] - r[67] <= 1
 mccormick3[68]: x[68] + u[68] - r[68] <= 1
 mccormick3[69]: x[69] + u[69] - r[69] <= 1
 mccormick3[70]: x[70] + u[70] - r[70] <= 1
 mccormick3[71]: x[71] + u[71] - r[71] <= 1
 mccormick3[72]: x[72] + u[72] - r[72] <= 1
 mccormick3[73]: x[73] + u[73] - r[73] <= 1
 mccormick3[74]: x[74] + u[74] - r[74] <= 1
 mccormick3[75]: x[75] + u[75] - r[75] <= 1
 mccormick3[76]: x[76] + u[76] - r[76] <= 1
 mccormick3[77]: x[77] + u[77] - r[77] <= 1
 mccormick3[78]: x[78] + u[78] - r[78] <= 1
 mccormick3[79]: x[79] + u[79] - r[79] <= 1
 mccormick3[80]: x[80] + u[80] - r[80] <= 1
 mccormick3[81]: x[81] + u[81] - r[81] <= 1
 mccormick3[82]: x[82] + u[82] - r[82] <= 1
 mccormick3[83]: x[83] + u[83] - r[83] <= 1
 mccormick3[84]: x[84] + u[84] - r[84] <= 1
 mccormick3[85]: x[85] + u[85] - r[85] <= 1
 mccormick3[86]: x[86] + u[86] - r[86] <= 1
 mccormick3[87]: x[87] + u[87] - r[87] <= 1
 mccormick3[88]: x[88] + u[88] - r[88] <= 1
 mccormick3[89]: x[89] + u[89] - r[89] <= 1
 mccormick3[90]: x[90] + u[90] - r[90] <= 1
 mccormick3[91]: x[91] + u[91] - r[91] <= 1
 mccormick3[92]: x[92] + u[92] - r[92] <= 1
 mccormick3[93]: x[93] + u[93] - r[93] <= 1
 mccormick3[94]: x[94] + u[94] - r[94] <= 1
 mccormick3[95]: x[95] + u[95] - r[95] <= 1
 mccormick3[96]: x[96] + u[96] - r[96] <= 1
 mccormick3[97]: x[97] + u[97] - r[97] <= 1
 mccormick3[98]: x[98] + u[98] - r[98] <= 1
 mccormick3[99]: x[99] + u[99] - r[99] <= 1
 mccormick3[100]: x[100] + u[100] - r[100] <= 1
 mccormick3[101]: x[101] + u[101] - r[101] <= 1
 mccormick3[102]: x[102] + u[102] - r[102] <= 1
 mccormick3[103]: x[103] + u[103] - r[103] <= 1
 mccormick3[104]: x[104] + u[104] - r[104] <= 1
 mccormick3[105]: x[105] + u[105] - r[105] <= 1
 mccormick3[106]: x[106] + u[106] - r[106] <= 1
 mccormick3[107]: x[107] + u[107] - r[107] <= 1
 mccormick3[108]: x[108] + u[108] - r[108] <= 1
 mccormick3[109]: x[109] + u[109] - r[109] <= 1
 mccormick3[110]: x[110] + u[110] - r[110] <= 1
 mccormick3[111]: x[111] + u[111] - r[111] <= 1
 mccormick3[112]: x[112] + u[112] - r[112] <= 1
 mccormick3[113]: x[113] + u[113] - r[113] <= 1
 mccormick3[114]: x[114] + u[114] - r[114] <= 1
 mccormick3[115]: x[115] + u[115] - r[115] <= 1
 mccormick3[116]: x[116] + u[116] - r[116] <= 1
 mccormick3[117]: x[117] + u[117] - r[117] <= 1
 mccormick3[118]: x[118] + u[118] - r[118] <= 1
 mccormick3[119]: x[119] + u[119] - r[119] <= 1
Bounds
Binaries
 x[0] x[1] x[2] x[3] x[4] x[5] x[6] x[7] x[8] x[9] x[10] x[11] x[12] x[13]
 x[14] x[15] x[16] x[17] x[18] x[19] x[20] x[21] x[22] x[23] x[24] x[25]
 x[26] x[27] x[28] x[29] x[30] x[31] x[32] x[33] x[34] x[35] x[36] x[37]
 x[38] x[39] x[40] x[41] x[42] x[43] x[44] x[45] x[46] x[47] x[48] x[49]
 x[50] x[51] x[52] x[53] x[54] x[55] x[56] x[57] x[58] x[59] x[60] x[61]
 x[62] x[63] x[64] x[65] x[66] x[67] x[68] x[69] x[70] x[71] x[72] x[73]
 x[74] x[75] x[76] x[77] x[78] x[79] x[80] x[81] x[82] x[83] x[84] x[85]
 x[86] x[87] x[88] x[89] x[90] x[91] x[92] x[93] x[94] x[95] x[96] x[97]
 x[98] x[99] x[100] x[101] x[102] x[103] x[104] x[105] x[106] x[107] x[108]
 x[109] x[110] x[111] x[112] x[113] x[114] x[115] x[116] x[117] x[118]
 x[119] u[0] u[1] u[2] u[3] u[4] u[5] u[6] u[7] u[8] u[9] u[10] u[11] u[12]
 u[13] u[14] u[15] u[16] u[17] u[18] u[19] u[20] u[21] u[22] u[23] u[24]
 u[25] u[26] u[27] u[28] u[29] u[30] u[31] u[32] u[33] u[34] u[35] u[36]
 u[37] u[38] u[39] u[40] u[41] u[42] u[43] u[44] u[45] u[46] u[47] u[48]
 u[49] u[50] u[51] u[52] u[53] u[54] u[55] u[56] u[57] u[58] u[59] u[60]
 u[61] u[62] u[63] u[64] u[65] u[66] u[67] u[68] u[69] u[70] u[71] u[72]
 u[73] u[74] u[75] u[76] u[77] u[78] u[79] u[80] u[81] u[82] u[83] u[84]
 u[85] u[86] u[87] u[88] u[89] u[90] u[91] u[92] u[93] u[94] u[95] u[96]
 u[97] u[98] u[99] u[100] u[101] u[102] u[103] u[104] u[105] u[106] u[107]
 u[108] u[109] u[110] u[111] u[112] u[113] u[114] u[115] u[116] u[117]
 u[118] u[119] r[0] r[1] r[2] r[3] r[4] r[5] r[6] r[7] r[8] r[9] r[10]
 r[11] r[12] r[13] r[14] r[15] r[16] r[17] r[18] r[19] r[20] r[21] r[22]
 r[23] r[24] r[25] r[26] r[27] r[28] r[29] r[30] r[31] r[32] r[33] r[34]
 r[35] r[36] r[37] r[38] r[39] r[40] r[41] r[42] r[43] r[44] r[45] r[46]
 r[47] r[48] r[49] r[50] r[51] r[52] r[53] r[54] r[55] r[56] r[57] r[58]
 r[59] r[60] r[61] r[62] r[63] r[64] r[65] r[66] r[67] r[68] r[69] r[70]
 r[71] r[72] r[73] r[74] r[75] r[76] r[77] r[78] r[79] r[80] r[81] r[82]
 r[83] r[84] r[85] r[86] r[87] r[88] r[89] r[90] r[91] r[92] r[93] r[94]
 r[95] r[96] r[97] r[98] r[99] r[100] r[101] r[102] r[103] r[104] r[105]
 r[106] r[107] r[108] r[109] r[110] r[111] r[112] r[113] r[114] r[115]
 r[116] r[117] r[118] r[119]
End
