instances/knapsack/discrete/knapsack_120_1.kp
71322
120
583

20 2.0 2
84 8.4 63
62 6.2 64
19 1.9 8
96 9.6 18
2 0.2 77
65 6.5 74
100 10.0 28
77 7.7 83
74 7.4 31
60 6.0 27
59 5.9 3
96 9.6 43
92 9.2 58
17 1.7 79
41 4.1 52
5 0.5 34
16 1.6 26
17 1.7 11
46 4.6 54
17 1.7 30
60 6.0 67
56 5.6 48
51 5.1 80
49 4.9 93
80 8.0 79
6 0.6 56
56 5.6 40
90 9.0 54
19 1.9 17
62 6.2 69
68 6.8 52
68 6.8 68
5 0.5 99
68 6.8 28
93 9.3 45
76 7.6 21
85 8.5 55
76 7.6 15
59 5.9 4
27 2.7 64
18 1.8 70
66 6.6 14
30 3.0 83
75 7.5 35
43 4.3 11
62 6.2 65
46 4.6 73
83 8.3 89
96 9.6 74
55 5.5 35
20 2.0 71
77 7.7 99
28 2.8 89
97 9.7 4
92 9.2 46
65 6.5 63
71 7.1 40
64 6.4 68
42 4.2 11
97 9.7 40
3 0.3 26
72 7.2 50
91 9.1 22
64 6.4 63
84 8.4 81
37 3.7 17
27 2.7 22
12 1.2 41
66 6.6 58
30 3.0 1
34 3.4 67
54 5.4 57
27 2.7 30
32 3.2 83
1 0.1 70
55 5.5 42
35 3.5 85
37 3.7 8
31 3.1 68
42 4.2 51
74 7.4 58
79 7.9 86
90 9.0 38
2 0.2 65
66 6.6 21
24 2.4 86
88 8.8 71
38 3.8 100
83 8.3 51
37 3.7 70
33 3.3 6
93 9.3 26
12 1.2 37
32 3.2 64
5 0.5 75
53 5.3 45
69 6.9 40
28 2.8 97
44 4.4 97
33 3.3 21
68 6.8 14
58 5.8 47
20 2.0 2
37 3.7 63
14 1.4 99
79 7.9 62
27 2.7 93
39 3.9 50
9 0.9 13
15 1.5 50
71 7.1 10
29 2.9 98
77 7.7 88
5 0.5 98
75 7.5 17
67 6.7 7
81 8.1 93
77 7.7 98
13 1.3 27

78308
579

[2.601782575728829 0.4019749374056567 1.8033550289778149 1.6305797088503027 3.9782128426980385 2.913849297256113 1.6360442792838266 2.434782266007326 1.3434986823742194 4.798337860000973 4.133618216083408 0.6366908032121051 2.768229725965968 1.6376458511794383 2.376732630655445 2.901451743923653 2.1994003105809896 3.2941891288412233 1.9015663413404258 3.896373871603884 3.200363450960277 3.0494289426904184 1.4048450592637316 2.3081445429134106 2.471867980484513 2.4853640310807488 1.4335091934791862 1.9124026123407794 0.067452617523476 2.905958847840111 1.3905500924374932 1.3504411230515547 1.337447663094157 2.073067752786706 2.255797856506507 0.7386154733384979 1.2365121020722136 1.9481786745678402 4.7859294289137555 4.387340857649155 3.426647341846073 0.8618014206818755 2.4340454488508576 0.5476787814968643 4.291143262020499 0.7368261838015824 2.559747595106626 2.6971808889808666 0.6295507877907258 0.9526971376897058 0.2792014559535921 1.4968247095413971 3.264722888627475 0.050832176994165056 1.2285759504841678 1.0633709206729816 1.0759779329389902 4.536207588456005 1.4343061904037906 1.8203155627608163 3.0600468211091796 1.5621961154480593 3.5887062706129305 0.08695918071448305 3.9639367575346203 3.2993590053403987 0.0818774842121791 0.3123455038371736 2.751642243239613 4.635453888788168 3.0887662712844106 3.3702275369061327 4.77485835643677 0.25478602891293567 0.5438356975357438 4.518601088072687 4.281371167012761 1.0892086657040674 3.2714368762860455 2.344089469692917 4.5022817405917825 4.6079291116689856 3.922377304553846 2.353005045916784 1.4289684880704059 4.054600976252418 0.8983899127727601 1.5030016481659012 1.500823018195498 0.47578529546842263 2.069135107075814 0.057679220195145146 2.6178601743619945 0.9227714121521107 3.106844358034549 4.318496537392385 0.396151907916655 4.029188706009966 0.9439927117500129 4.243507620153281 4.189477616265676 0.40777114268432596 2.6432230681052804 0.9649298608675912 1.9304087732201194 4.390780577212207 3.226658595740576 3.6395435935245426 1.83746662053007 4.422606117308204 4.180108582138292 4.598479569840992 4.527293381269232 3.3027024180704427 4.4440187402912175 4.314413687742277 1.4529338492914736 1.9555948239174927 2.580152875456716 3.6456126374802302]

[61 41 71 96 21 51 2 89 94 83 5 64 65 45 30 94 74 9 46 75 82 37 25 80 66 21 83 93 71 48 43 9 73 22 85 66 45 26 45 84 48 15 63 43 16 28 63 91 36 53 48 73 82 57 78 65 98 68 21 31 38 44 69 60 81 37 30 88 25 55 15 23 79 48 25 62 36 52 6 52 47 55 60 59 3 3 1 65 79 28 14 82 34 41 57 6 94 50 17 81 2 53 15 65 90 71 28 84 100 50 68 44 46 94 42 28 28 22 6 54]
